P3m1-ZrH0.5
1.00000000000000
     3.2473429192776222    0.0000005411677112   -0.0000003193850442
    -1.6236710369769110    2.8122816993730173    0.0000002588134869
    -0.0000003348673996   -0.0000001422067855   10.8938818471324979
   Zr   H.
     4     2
Selective dynamics
Direct
  0.0000009456284579  0.9999990468417229  0.8364788462753799   T   T   T
  0.3333337076008350  0.6666663127596375  0.3563465494536681   T   T   T
  0.6666679956942888  0.3333320051713725  0.5949412312607910   T   T   T
  0.6666668476797596  0.3333331312729497  0.0785155229042114   T   T   T
  0.6666669816435867  0.3333330110991020  0.2727792645402871   T   T   T
  0.3333335217530755  0.6666664928552192  0.1612285855656593   T   T   T

